
Gurobi 11.0.0 (win64) logging started Sun Apr 21 18:54:02 2024

Set parameter LogFile to value "./Results/StripPacking_CutsTest_RU/Logs/RU-StripPacking-18.log"
Set parameter TimeLimit to value 3600
Set parameter Cuts to value 1
Set parameter Presolve to value 1
Set parameter Heuristics to value 1
Gurobi Optimizer version 11.0.0 build v11.0.0rc2 (win64 - Windows 10.0 (19045.2))

CPU model: Intel(R) Core(TM) i9-10980XE CPU @ 3.00GHz, instruction set [SSE2|AVX|AVX2|AVX512]
Thread count: 18 physical cores, 36 logical processors, using up to 18 threads

Optimize a model with 2313 rows, 649 columns and 6156 nonzeros
Model fingerprint: 0x3ded814c
Variable types: 37 continuous, 612 integer (612 binary)
Coefficient statistics:
  Matrix range     [1e+00, 3e+02]
  Objective range  [1e+00, 1e+00]
  Bounds range     [1e+00, 3e+02]
  RHS range        [1e+00, 3e+02]
Presolve removed 19 rows and 5 columns
Presolve time: 0.01s
Presolved: 2294 rows, 644 columns, 7283 nonzeros
Variable types: 37 continuous, 607 integer (607 binary)

Root relaxation: objective 2.000000e+02, 498 iterations, 0.00 seconds (0.01 work units)

    Nodes    |    Current Node    |     Objective Bounds      |     Work
 Expl Unexpl |  Obj  Depth IntInf | Incumbent    BestBd   Gap | It/Node Time

     0     0  200.00000    0   32          -  200.00000      -     -    0s
     0     0  200.00000    0   79          -  200.00000      -     -    0s
     0     0  200.00000    0   92          -  200.00000      -     -    0s
     0     0  200.00000    0   41          -  200.00000      -     -    0s
     0     0  200.00000    0   75          -  200.00000      -     -    0s
     0     0  200.00000    0   40          -  200.00000      -     -    0s
     0     0  200.00000    0   36          -  200.00000      -     -    0s
     0     0  200.00000    0   49          -  200.00000      -     -    0s
H    0     0                     280.0000000  200.00000  28.6%     -    0s
     0     0  200.00000    0   44  280.00000  200.00000  28.6%     -    0s
     0     2  200.00000    0   44  280.00000  200.00000  28.6%     -    0s
H  132   131                     278.0000000  200.00000  28.1%  38.7    1s
H  138   148                     276.0000000  200.00000  27.5%  37.7    1s
H  138   148                     270.0000000  200.00000  25.9%  37.7    1s
H  147   148                     269.0000000  200.00000  25.7%  37.3    1s
H  192   201                     257.0000000  200.00000  22.2%  35.1    1s
H  350   345                     255.0000000  200.00000  21.6%  30.3    1s
H  654   526                     255.0000000  200.00000  21.6%  32.5    2s
H  833   776                     254.0000000  200.00000  21.3%  33.5    4s
H 1232   920                     248.0000000  200.00000  19.4%  31.8    4s
  1419   902  200.00000   17   89  248.00000  200.00000  19.4%  31.9    6s
H 1425   902                     248.0000000  200.00000  19.4%  31.8    6s
H 1502   902                     246.0000000  200.00000  18.7%  32.2    6s
H 1509  1105                     244.0000000  200.00000  18.0%  32.1    8s
H 1534  1105                     238.0000000  200.00000  16.0%  32.1    8s
  2613   959  226.00000   15  100  238.00000  200.00000  16.0%  35.7   10s
H 3188  1070                     238.0000000  200.00000  16.0%  36.7   13s
  4043  1055 infeasible    9       238.00000  200.00000  16.0%  36.4   16s
  5387   898 infeasible   22       238.00000  210.00000  11.8%  33.9   21s
  6438   618 infeasible   11       238.00000  222.00000  6.72%  33.5   25s

Cutting planes:
  Learned: 526
  Gomory: 6
  Cover: 77
  Implied bound: 2
  Clique: 14
  MIR: 260
  StrongCG: 10
  GUB cover: 7
  Inf proof: 1
  Zero half: 1
  Relax-and-lift: 17
  BQP: 2

Explored 8873 nodes (274564 simplex iterations) in 29.62 seconds (26.63 work units)
Thread count was 18 (of 36 available processors)

Solution count 10: 238 238 244 ... 269

Optimal solution found (tolerance 1.00e-04)
Best objective 2.379999999761e+02, best bound 2.379999999761e+02, gap 0.0000%

Gurobi 11.0.0 (win64) logging started Sun Apr 21 18:54:32 2024

Set parameter LogFile to value "./Results/StripPacking_CutsTest_RU/Logs/RU-StripPacking-18.log"
Set parameter TimeLimit to value 3600
Set parameter Cuts to value 1
Set parameter Presolve to value 0
Set parameter Heuristics to value 0
Gurobi Optimizer version 11.0.0 build v11.0.0rc2 (win64 - Windows 10.0 (19045.2))

CPU model: Intel(R) Core(TM) i9-10980XE CPU @ 3.00GHz, instruction set [SSE2|AVX|AVX2|AVX512]
Thread count: 18 physical cores, 36 logical processors, using up to 18 threads

Optimize a model with 2313 rows, 649 columns and 6156 nonzeros
Model fingerprint: 0x3ded814c
Variable types: 37 continuous, 612 integer (612 binary)
Coefficient statistics:
  Matrix range     [1e+00, 3e+02]
  Objective range  [1e+00, 1e+00]
  Bounds range     [1e+00, 3e+02]
  RHS range        [1e+00, 3e+02]
Variable types: 37 continuous, 612 integer (612 binary)

Root relaxation: objective 1.640450e+02, 486 iterations, 0.00 seconds (0.01 work units)

    Nodes    |    Current Node    |     Objective Bounds      |     Work
 Expl Unexpl |  Obj  Depth IntInf | Incumbent    BestBd   Gap | It/Node Time

     0     0  164.04500    0   39          -  164.04500      -     -    0s
     0     0  200.00000    0   29          -  200.00000      -     -    0s
     0     0  200.00000    0   65          -  200.00000      -     -    0s
     0     0  200.00000    0   62          -  200.00000      -     -    0s
     0     0  200.00000    0   39          -  200.00000      -     -    0s
     0     0  200.00000    0   36          -  200.00000      -     -    0s
     0     0  200.00000    0   29          -  200.00000      -     -    0s
     0     0  200.00000    0   32          -  200.00000      -     -    0s
     0     0  200.00000    0   41          -  200.00000      -     -    0s
     0     0  200.00000    0   40          -  200.00000      -     -    0s
     0     2  200.00000    0   32          -  200.00000      -     -    0s
H 2981  1996                     280.0000000  200.00000  28.6%  26.3    2s
* 3809  2435              64     278.0000000  200.00000  28.1%  31.5    2s
* 3937  2449              63     276.0000000  200.00000  27.5%  31.2    2s
* 4215  2321              73     275.0000000  200.00000  27.3%  30.7    2s
* 4298  2255              69     267.0000000  200.00000  25.1%  30.8    2s
* 4493  2118              72     262.0000000  200.00000  23.7%  31.2    2s
* 4794  1933              59     257.0000000  200.00000  22.2%  31.1    2s
* 4835  1846              57     256.0000000  200.00000  21.9%  31.1    2s
* 5571  1446              55     255.0000000  200.00000  21.6%  30.2    3s
* 5584  1376              60     252.0000000  200.00000  20.6%  30.2    3s
* 5835  1291              37     250.0000000  200.00000  20.0%  30.7    3s
* 5851  1226              47     248.0000000  210.00000  15.3%  30.7    3s
* 6741   953              58     247.0000000  211.32609  14.4%  29.7    3s
* 7075   985              36     246.0000000  212.00000  13.8%  30.2    3s
* 7208   985              48     245.0000000  212.00000  13.5%  30.2    3s
* 7675   998              39     243.0000000  238.00000  2.06%  30.4    3s
* 7720   998              34     242.0000000  238.00000  1.65%  30.4    3s
* 8044   975              49     241.0000000  238.00000  1.24%  30.5    4s
* 8047   975              50     240.0000000  238.00000  0.83%  30.5    4s
* 8306   924              49     239.0000000  238.00000  0.42%  30.5    4s
* 8610   811              32     238.0000000  238.00000  0.00%  30.7    4s

Cutting planes:
  Learned: 455
  Gomory: 1
  Cover: 59
  Implied bound: 7
  MIR: 60
  Flow cover: 139
  GUB cover: 5
  Zero half: 1
  Relax-and-lift: 15

Explored 8967 nodes (278806 simplex iterations) in 4.46 seconds (2.98 work units)
Thread count was 18 (of 36 available processors)

Solution count 10: 238 239 240 ... 248

Optimal solution found (tolerance 1.00e-04)
Best objective 2.380000000000e+02, best bound 2.380000000000e+02, gap 0.0000%

Gurobi 11.0.0 (win64) logging started Sun Apr 21 18:54:37 2024

Set parameter LogFile to value "./Results/StripPacking_CutsTest_RU/Logs/RU-StripPacking-18.log"
Set parameter TimeLimit to value 3600
Set parameter Cuts to value 0
Set parameter Presolve to value 1
Set parameter Heuristics to value 0
Gurobi Optimizer version 11.0.0 build v11.0.0rc2 (win64 - Windows 10.0 (19045.2))

CPU model: Intel(R) Core(TM) i9-10980XE CPU @ 3.00GHz, instruction set [SSE2|AVX|AVX2|AVX512]
Thread count: 18 physical cores, 36 logical processors, using up to 18 threads

Optimize a model with 2313 rows, 649 columns and 6156 nonzeros
Model fingerprint: 0x3ded814c
Variable types: 37 continuous, 612 integer (612 binary)
Coefficient statistics:
  Matrix range     [1e+00, 3e+02]
  Objective range  [1e+00, 1e+00]
  Bounds range     [1e+00, 3e+02]
  RHS range        [1e+00, 3e+02]
Presolve removed 19 rows and 5 columns
Presolve time: 0.02s
Presolved: 2294 rows, 644 columns, 7283 nonzeros
Variable types: 37 continuous, 607 integer (607 binary)

Root relaxation: objective 2.000000e+02, 498 iterations, 0.01 seconds (0.01 work units)

    Nodes    |    Current Node    |     Objective Bounds      |     Work
 Expl Unexpl |  Obj  Depth IntInf | Incumbent    BestBd   Gap | It/Node Time

     0     0  200.00000    0   32          -  200.00000      -     -    0s
     0     0  200.00000    0   28          -  200.00000      -     -    0s
     0     2  200.00000    0   28          -  200.00000      -     -    0s
* 1426  1116              53     280.0000000  200.00000  28.6%  25.7    0s
* 3541  2005              54     279.0000000  200.00000  28.3%  27.4    0s
* 3805  2081              49     276.0000000  200.00000  27.5%  26.8    0s
* 3884  2027              53     271.0000000  200.00000  26.2%  26.5    1s
* 4127  1935              64     270.0000000  200.00000  25.9%  26.9    1s
* 4163  1940              62     266.0000000  200.00000  24.8%  27.0    1s
* 4337  1742              46     265.0000000  200.00000  24.5%  26.9    1s
* 4487  1623              44     264.0000000  200.00000  24.2%  26.8    1s
* 4891  1618              68     259.0000000  200.00000  22.8%  26.5    1s
* 5010  1524              62     256.0000000  200.00000  21.9%  26.1    1s
* 6495  1089              53     254.0000000  212.00000  16.5%  24.3    1s
* 7324  1076              68     250.0000000  212.00000  15.2%  23.9    1s
* 7450  1045              46     249.0000000  212.00000  14.9%  24.2    1s
* 8274  1024              52     247.0000000  212.00000  14.2%  25.0    1s
* 9569   956              48     244.0000000  212.00000  13.1%  25.3    1s
* 9610   956              33     242.0000000  212.00000  12.4%  25.3    1s
*10793   920              50     239.0000000  238.00000  0.42%  24.8    1s
*10899   920              44     238.0000000  238.00000  0.00%  25.0    1s

Explored 10909 nodes (274154 simplex iterations) in 1.92 seconds (2.16 work units)
Thread count was 18 (of 36 available processors)

Solution count 10: 238 239 242 ... 259

Optimal solution found (tolerance 1.00e-04)
Best objective 2.380000000000e+02, best bound 2.380000000000e+02, gap 0.0000%

Gurobi 11.0.0 (win64) logging started Sun Apr 21 18:54:39 2024

Set parameter LogFile to value "./Results/StripPacking_CutsTest_RU/Logs/RU-StripPacking-18.log"
Set parameter TimeLimit to value 3600
Set parameter Cuts to value 0
Set parameter Presolve to value 0
Set parameter Heuristics to value 1
Gurobi Optimizer version 11.0.0 build v11.0.0rc2 (win64 - Windows 10.0 (19045.2))

CPU model: Intel(R) Core(TM) i9-10980XE CPU @ 3.00GHz, instruction set [SSE2|AVX|AVX2|AVX512]
Thread count: 18 physical cores, 36 logical processors, using up to 18 threads

Optimize a model with 2313 rows, 649 columns and 6156 nonzeros
Model fingerprint: 0x3ded814c
Variable types: 37 continuous, 612 integer (612 binary)
Coefficient statistics:
  Matrix range     [1e+00, 3e+02]
  Objective range  [1e+00, 1e+00]
  Bounds range     [1e+00, 3e+02]
  RHS range        [1e+00, 3e+02]
Variable types: 37 continuous, 612 integer (612 binary)

Root relaxation: objective 1.640450e+02, 486 iterations, 0.00 seconds (0.01 work units)

    Nodes    |    Current Node    |     Objective Bounds      |     Work
 Expl Unexpl |  Obj  Depth IntInf | Incumbent    BestBd   Gap | It/Node Time

     0     0  164.04500    0   39          -  164.04500      -     -    0s
     0     0  200.00000    0   29          -  200.00000      -     -    0s
     0     0  200.00000    0   28          -  200.00000      -     -    0s
     0     2  200.00000    0   17          -  200.00000      -     -    0s
H  264   255                     280.0000000  200.00000  28.6%  33.3    0s
H  776   755                     265.0000000  200.00000  24.5%  23.0    0s
H  998   752                     257.0000000  200.00000  22.2%  23.1    0s
H 1703   988                     256.0000000  200.00000  21.9%  22.8    2s
H 1712   988                     253.0000000  200.00000  20.9%  22.8    2s
H 2045   988                     248.0000000  200.00000  19.4%  22.4    3s
H 2799  1112                     248.0000000  200.00000  19.4%  23.2    4s
H 2818  1093                     244.0000000  200.00000  18.0%  23.5    4s
H 2892  1132                     239.0000000  200.00000  16.3%  23.5    4s
  3096  1143  227.00000   30   52  239.00000  200.00000  16.3%  23.3    5s
H 3103   989                     238.0000000  200.00000  16.0%  23.2    5s

Explored 4534 nodes (112758 simplex iterations) in 8.32 seconds (8.37 work units)
Thread count was 18 (of 36 available processors)

Solution count 10: 238 239 244 ... 280

Optimal solution found (tolerance 1.00e-04)
Best objective 2.380000000000e+02, best bound 2.380000000000e+02, gap 0.0000%

Gurobi 11.0.0 (win64) logging started Sun Apr 21 18:54:47 2024

Set parameter LogFile to value "./Results/StripPacking_CutsTest_RU/Logs/RU-StripPacking-18.log"
Set parameter TimeLimit to value 3600
Set parameter Cuts to value 1
Set parameter Presolve to value 1
Set parameter Heuristics to value 0
Gurobi Optimizer version 11.0.0 build v11.0.0rc2 (win64 - Windows 10.0 (19045.2))

CPU model: Intel(R) Core(TM) i9-10980XE CPU @ 3.00GHz, instruction set [SSE2|AVX|AVX2|AVX512]
Thread count: 18 physical cores, 36 logical processors, using up to 18 threads

Optimize a model with 2313 rows, 649 columns and 6156 nonzeros
Model fingerprint: 0x3ded814c
Variable types: 37 continuous, 612 integer (612 binary)
Coefficient statistics:
  Matrix range     [1e+00, 3e+02]
  Objective range  [1e+00, 1e+00]
  Bounds range     [1e+00, 3e+02]
  RHS range        [1e+00, 3e+02]
Presolve removed 19 rows and 5 columns
Presolve time: 0.02s
Presolved: 2294 rows, 644 columns, 7283 nonzeros
Variable types: 37 continuous, 607 integer (607 binary)

Root relaxation: objective 2.000000e+02, 498 iterations, 0.01 seconds (0.01 work units)

    Nodes    |    Current Node    |     Objective Bounds      |     Work
 Expl Unexpl |  Obj  Depth IntInf | Incumbent    BestBd   Gap | It/Node Time

     0     0  200.00000    0   32          -  200.00000      -     -    0s
     0     0  200.00000    0   79          -  200.00000      -     -    0s
     0     0  200.00000    0   92          -  200.00000      -     -    0s
     0     0  200.00000    0   40          -  200.00000      -     -    0s
     0     0  200.00000    0   32          -  200.00000      -     -    0s
     0     0  200.00000    0   53          -  200.00000      -     -    0s
     0     0  200.00000    0   78          -  200.00000      -     -    0s
H    0     0                     280.0000000  200.00000  28.6%     -    0s
     0     0  200.00000    0   53  280.00000  200.00000  28.6%     -    0s
     0     0  200.00000    0   53  280.00000  200.00000  28.6%     -    0s
     0     0  200.00000    0   59  280.00000  200.00000  28.6%     -    0s
     0     0  200.00000    0   28  280.00000  200.00000  28.6%     -    0s
     0     2  200.00000    0   25  280.00000  200.00000  28.6%     -    0s
* 2159  1460             106     277.0000000  200.00000  27.8%  22.9    1s
* 3955  2203              69     273.0000000  201.28797  26.3%  27.5    2s
* 4083  2148              58     263.0000000  201.28797  23.5%  27.2    2s
* 4134  2108              50     262.0000000  201.28797  23.2%  27.3    2s
* 4265  2053              53     260.0000000  204.70938  21.3%  27.3    2s
* 4632  1886              49     257.0000000  204.70938  20.3%  27.7    2s
* 4955  1723              47     251.0000000  212.00000  15.5%  28.1    2s
* 5169  1495              47     249.0000000  212.00000  14.9%  28.2    2s
* 5505  1347              45     248.0000000  212.00000  14.5%  28.9    3s
* 5554  1271              42     247.0000000  212.00000  14.2%  28.8    3s
* 5659  1137              53     242.0000000  226.00000  6.61%  28.9    3s
* 6163   970              49     241.0000000  226.00000  6.22%  29.3    3s
* 6200   970              44     238.0000000  226.00000  5.04%  29.3    3s

Cutting planes:
  Learned: 205
  Gomory: 1
  Cover: 63
  Implied bound: 5
  Clique: 9
  MIR: 40
  StrongCG: 2
  Flow cover: 84
  GUB cover: 10
  Zero half: 2
  Relax-and-lift: 25

Explored 7031 nodes (193794 simplex iterations) in 4.17 seconds (2.56 work units)
Thread count was 18 (of 36 available processors)

Solution count 10: 238 241 242 ... 262

Optimal solution found (tolerance 1.00e-04)
Best objective 2.380000000000e+02, best bound 2.380000000000e+02, gap 0.0000%

Gurobi 11.0.0 (win64) logging started Sun Apr 21 18:54:51 2024

Set parameter LogFile to value "./Results/StripPacking_CutsTest_RU/Logs/RU-StripPacking-18.log"
Set parameter TimeLimit to value 3600
Set parameter Cuts to value 1
Set parameter Presolve to value 0
Set parameter Heuristics to value 1
Gurobi Optimizer version 11.0.0 build v11.0.0rc2 (win64 - Windows 10.0 (19045.2))

CPU model: Intel(R) Core(TM) i9-10980XE CPU @ 3.00GHz, instruction set [SSE2|AVX|AVX2|AVX512]
Thread count: 18 physical cores, 36 logical processors, using up to 18 threads

Optimize a model with 2313 rows, 649 columns and 6156 nonzeros
Model fingerprint: 0x3ded814c
Variable types: 37 continuous, 612 integer (612 binary)
Coefficient statistics:
  Matrix range     [1e+00, 3e+02]
  Objective range  [1e+00, 1e+00]
  Bounds range     [1e+00, 3e+02]
  RHS range        [1e+00, 3e+02]
Variable types: 37 continuous, 612 integer (612 binary)

Root relaxation: objective 1.640450e+02, 486 iterations, 0.00 seconds (0.01 work units)

    Nodes    |    Current Node    |     Objective Bounds      |     Work
 Expl Unexpl |  Obj  Depth IntInf | Incumbent    BestBd   Gap | It/Node Time

     0     0  164.04500    0   39          -  164.04500      -     -    0s
     0     0  200.00000    0   29          -  200.00000      -     -    0s
     0     0  200.00000    0   65          -  200.00000      -     -    0s
     0     0  200.00000    0   62          -  200.00000      -     -    0s
     0     0  200.00000    0   30          -  200.00000      -     -    0s
     0     0  200.00000    0   53          -  200.00000      -     -    0s
     0     0  200.00000    0   43          -  200.00000      -     -    0s
     0     0  200.00000    0   58          -  200.00000      -     -    0s
     0     0  200.00000    0   37          -  200.00000      -     -    0s
     0     0  200.00000    0   32          -  200.00000      -     -    0s
     0     2  200.00000    0   28          -  200.00000      -     -    0s
H  756   691                     279.0000000  200.00000  28.3%  33.0    0s
H  801   732                     278.0000000  200.00000  28.1%  32.4    0s
H 1044   881                     274.0000000  200.00000  27.0%  30.2    1s
H 1306   985                     274.0000000  200.00000  27.0%  28.0    1s
H 1314   985                     273.0000000  200.00000  26.7%  27.9    1s
H 1550   982                     265.0000000  200.00000  24.5%  28.0    1s
H 1553   982                     262.0000000  200.00000  23.7%  28.0    1s
H 1812   983                     260.0000000  200.00000  23.1%  27.6    2s
H 1820   983                     258.0000000  200.00000  22.5%  27.6    2s
H 1821   983                     257.0000000  200.00000  22.2%  27.6    2s
H 2012   993                     253.0000000  200.00000  20.9%  28.1    4s
  2219   957 infeasible   71       253.00000  200.00000  20.9%  28.8    6s
H 2223   957                     250.0000000  200.00000  20.0%  28.8    6s
H 2223   957                     249.0000000  200.00000  19.7%  28.8    6s
H 2224   957                     248.0000000  200.00000  19.4%  28.9    6s
H 2477   972                     248.0000000  200.00000  19.4%  29.5    8s
  2754   956  237.00000   11  122  248.00000  205.50000  17.1%  29.0   10s
H 2774   956                     247.0000000  205.50000  16.8%  29.1   10s
H 2784   956                     246.0000000  205.50000  16.5%  29.1   10s
H 3043   955                     244.0000000  205.50000  15.8%  28.9   11s
H 3063   955                     239.0000000  205.50000  14.0%  28.9   11s
H 3407   926                     239.0000000  210.00000  12.1%  28.0   12s
H 3511   924                     238.0000000  210.00000  11.8%  27.9   12s
H 4046   469                     238.0000000  214.00000  10.1%  26.0   13s

Cutting planes:
  Learned: 573
  Gomory: 3
  Cover: 41
  Implied bound: 4
  Clique: 1
  MIR: 151
  StrongCG: 1
  GUB cover: 6
  Zero half: 2
  Relax-and-lift: 20
  BQP: 1

Explored 4788 nodes (116925 simplex iterations) in 14.70 seconds (12.71 work units)
Thread count was 18 (of 36 available processors)

Solution count 10: 238 238 239 ... 250

Optimal solution found (tolerance 1.00e-04)
Best objective 2.379999999761e+02, best bound 2.379999999761e+02, gap 0.0000%

Gurobi 11.0.0 (win64) logging started Sun Apr 21 18:55:06 2024

Set parameter LogFile to value "./Results/StripPacking_CutsTest_RU/Logs/RU-StripPacking-18.log"
Set parameter TimeLimit to value 3600
Set parameter Cuts to value 0
Set parameter Presolve to value 1
Set parameter Heuristics to value 1
Gurobi Optimizer version 11.0.0 build v11.0.0rc2 (win64 - Windows 10.0 (19045.2))

CPU model: Intel(R) Core(TM) i9-10980XE CPU @ 3.00GHz, instruction set [SSE2|AVX|AVX2|AVX512]
Thread count: 18 physical cores, 36 logical processors, using up to 18 threads

Optimize a model with 2313 rows, 649 columns and 6156 nonzeros
Model fingerprint: 0x3ded814c
Variable types: 37 continuous, 612 integer (612 binary)
Coefficient statistics:
  Matrix range     [1e+00, 3e+02]
  Objective range  [1e+00, 1e+00]
  Bounds range     [1e+00, 3e+02]
  RHS range        [1e+00, 3e+02]
Presolve removed 19 rows and 5 columns
Presolve time: 0.03s
Presolved: 2294 rows, 644 columns, 7283 nonzeros
Variable types: 37 continuous, 607 integer (607 binary)

Root relaxation: objective 2.000000e+02, 498 iterations, 0.02 seconds (0.01 work units)

    Nodes    |    Current Node    |     Objective Bounds      |     Work
 Expl Unexpl |  Obj  Depth IntInf | Incumbent    BestBd   Gap | It/Node Time

     0     0  200.00000    0   32          -  200.00000      -     -    0s
     0     0  200.00000    0   30          -  200.00000      -     -    0s
H    0     0                     280.0000000  200.00000  28.6%     -    0s
H    0     0                     274.0000000  200.00000  27.0%     -    0s
     0     2  200.00000    0   23  274.00000  200.00000  27.0%     -    0s
H  137   149                     273.0000000  200.00000  26.7%  37.2    0s
H  142   149                     270.0000000  200.00000  25.9%  36.7    0s
H  148   149                     265.0000000  200.00000  24.5%  44.2    0s
H  192   203                     264.0000000  200.00000  24.2%  37.4    1s
H  193   203                     262.0000000  200.00000  23.7%  37.3    1s
H  265   273                     260.0000000  200.00000  23.1%  34.1    2s
H  355   355                     255.0000000  200.00000  21.6%  30.1    3s
H  357   355                     251.0000000  200.00000  20.3%  29.9    3s
H  379   355                     239.0000000  200.00000  16.3%  30.6    4s
   409   360  200.00000   21   45  239.00000  200.00000  16.3%  31.9    5s
H  434   360                     239.0000000  200.00000  16.3%  31.7    5s
H  989   692                     238.0000000  200.00000  16.0%  29.3    7s
  1497  1149 infeasible   19       238.00000  200.00000  16.0%  26.5   10s
  3755  1657  233.00000   25   30  238.00000  200.00000  16.0%  23.4   15s

Explored 3792 nodes (95767 simplex iterations) in 15.26 seconds (13.34 work units)
Thread count was 18 (of 36 available processors)

Solution count 10: 238 239 239 ... 270

Optimal solution found (tolerance 1.00e-04)
Best objective 2.380000000000e+02, best bound 2.380000000000e+02, gap 0.0000%

Gurobi 11.0.0 (win64) logging started Sun Apr 21 18:55:22 2024

Set parameter LogFile to value "./Results/StripPacking_CutsTest_RU/Logs/RU-StripPacking-18.log"
Set parameter TimeLimit to value 3600
Set parameter Cuts to value 0
Set parameter Presolve to value 0
Set parameter Heuristics to value 0
Gurobi Optimizer version 11.0.0 build v11.0.0rc2 (win64 - Windows 10.0 (19045.2))

CPU model: Intel(R) Core(TM) i9-10980XE CPU @ 3.00GHz, instruction set [SSE2|AVX|AVX2|AVX512]
Thread count: 18 physical cores, 36 logical processors, using up to 18 threads

Optimize a model with 2313 rows, 649 columns and 6156 nonzeros
Model fingerprint: 0x3ded814c
Variable types: 37 continuous, 612 integer (612 binary)
Coefficient statistics:
  Matrix range     [1e+00, 3e+02]
  Objective range  [1e+00, 1e+00]
  Bounds range     [1e+00, 3e+02]
  RHS range        [1e+00, 3e+02]
Variable types: 37 continuous, 612 integer (612 binary)

Root relaxation: objective 1.640450e+02, 486 iterations, 0.02 seconds (0.01 work units)

    Nodes    |    Current Node    |     Objective Bounds      |     Work
 Expl Unexpl |  Obj  Depth IntInf | Incumbent    BestBd   Gap | It/Node Time

     0     0  164.04500    0   39          -  164.04500      -     -    0s
     0     0  200.00000    0   29          -  200.00000      -     -    0s
     0     0  200.00000    0   28          -  200.00000      -     -    0s
     0     2  200.00000    0   28          -  200.00000      -     -    0s
* 1743  1211              76     274.0000000  200.00000  27.0%  24.7    0s
* 3653  1846              56     273.0000000  200.00000  26.7%  23.5    0s
* 3875  1922              46     268.0000000  200.00000  25.4%  23.3    0s
* 3877  1854              39     258.0000000  200.00000  22.5%  23.3    0s
* 3955  1765              51     257.0000000  200.00000  22.2%  23.2    0s
* 4879  1544              57     256.0000000  200.00000  21.9%  24.1    1s
* 4974  1455              51     248.0000000  200.00000  19.4%  24.1    1s
* 6047   997              50     240.0000000  233.00000  2.92%  24.4    1s
* 6895   946              49     239.0000000  238.00000  0.42%  26.4    1s
* 6957   919              46     238.0000000  238.00000  0.00%  26.4    1s

Explored 7173 nodes (193214 simplex iterations) in 1.49 seconds (1.52 work units)
Thread count was 18 (of 36 available processors)

Solution count 10: 238 239 240 ... 274

Optimal solution found (tolerance 1.00e-04)
Best objective 2.380000000000e+02, best bound 2.380000000000e+02, gap 0.0000%
